NAME: Random ATSP Instance
TYPE: ATSP
DIMENSION: 10
EDGE_WEIGHT_TYPE: EXPLICIT
EDGE_WEIGHT_FORMAT: FULL_MATRIX
EDGE_WEIGHT_SECTION
9999 7 16 9 9 19 12 16 10 4
18 9999 2 16 17 12 14 5 7 4
18 17 9999 3 10 12 16 20 6 13
3 6 16 9999 14 11 13 11 18 1
17 19 2 1 9999 12 9 2 12 14
20 11 9 10 6 9999 15 19 20 3
20 6 19 17 9 12 9999 9 11 15
17 11 8 1 2 17 9 9999 4 6
6 17 1 8 15 1 10 6 9999 11
10 11 10 4 8 5 13 10 2 9999
EOF
